10J3M/DAT/10J3MNTX-7.dat
10 3
35.4393 5.9531
25.9863 5.0977
29.5353 5.4346
23.755 4.8739
24.2889 4.9284
31.1336 5.5797
22.1217 4.7034
27.2518 5.2203
19.3543 4.3994
20.5525 4.5335
12.681