10J3M/SOL/10J3MNTX-7.sol
solution status: optimal solution found
objective value:                     67.2944342879619
x#1#1                               0.163940940805575 	(obj:0)
x#1#3                               0.836059059194425 	(obj:0)
x#2#1                               0.793736938419204 	(obj:0)
x#2#3                               0.206263061580796 	(obj:0)
x#3#2                                               1 	(obj:0)
x#4#3                                               1 	(obj:0)
x#5#2                               0.832970212302321 	(obj:0)
x#5#3                               0.167029787697679 	(obj:0)
x#6#1                                0.43703252761094 	(obj:0)
x#6#2                               0.562967472389061 	(obj:0)
x#7#3                               0.203108389675553 	(obj:0)
x#8#1                                               1 	(obj:0)
z                                    67.2944342879619 	(obj:1)
